7
0, 626, 450, 269, 420, 489, 98
626, 0, 861, 382, 599, 610, 720
450, 861, 0, 641, 288, 323, 467
269, 382, 641, 0, 481, 534, 351
420, 599, 288, 481, 0, 70, 492
489, 610, 323, 534, 70, 0, 562
98, 720, 467, 351, 492, 562, 0
